1 100 629
3 3 3 1 4 3 1 2 4 3
1
4
0 40.0 50.0 0.0 0.0 0 1236
2 45.0 68.0 90.0 10.0 0 1127 53 1 0 0 0 0 0 0 0 1 0
3 45.0 70.0 90.0 30.0 0 1125 36 0 0 1 0 0 1 0 0 0 0
4 42.0 66.0 90.0 10.0 0 1129 77 0 0 0 0 1 0 0 0 1 0
5 42.0 68.0 90.0 10.0 727 782 83 1 1 0 0 1 0 1 0 0 0
6 42.0 65.0 90.0 10.0 0 1130 39 0 1 0 0 0 1 0 0 0 0
7 40.0 69.0 90.0 20.0 621 702 7 0 1 0 0 0 1 0 0 1 0
8 40.0 66.0 90.0 20.0 0 1130 69 1 0 0 0 0 1 0 0 0 0
9 38.0 68.0 90.0 20.0 255 324 85 1 0 0 0 0 0 0 0 0 0
10 38.0 70.0 90.0 10.0 534 605 25 0 0 0 0 0 1 0 1 0 0
11 35.0 66.0 90.0 10.0 357 410 53 0 0 0 0 0 0 0 1 0 0
12 35.0 69.0 90.0 10.0 448 505 56 1 0 0 0 0 0 0 0 0 1
13 25.0 85.0 90.0 20.0 0 1107 29 0 1 0 1 1 0 0 0 0 0
14 22.0 75.0 90.0 30.0 30 92 12 0 1 1 0 0 0 0 0 0 0
15 22.0 85.0 90.0 10.0 0 1106 29 1 0 1 0 0 1 0 0 0 0
16 20.0 80.0 90.0 40.0 384 429 95 1 1 1 1 1 0 0 0 0 0
17 20.0 85.0 90.0 40.0 0 1105 3 0 1 0 1 1 0 1 1 1 0
18 18.0 75.0 90.0 20.0 99 148 72 0 0 0 1 0 1 0 0 0 0
19 15.0 75.0 90.0 20.0 0 1110 25 0 0 1 1 0 1 1 0 0 0
20 15.0 80.0 90.0 10.0 0 1106 9 0 0 1 0 0 1 0 0 0 1
21 30.0 50.0 90.0 10.0 0 1136 1 0 0 0 0 0 0 0 1 0 0
22 30.0 52.0 90.0 20.0 0 1135 36 0 0 0 0 0 0 1 0 0 0
23 28.0 52.0 90.0 20.0 812 883 77 0 0 1 0 0 0 1 0 0 0
24 28.0 55.0 90.0 10.0 732 777 84 0 0 0 0 0 0 0 0 1 0
25 25.0 50.0 90.0 10.0 0 1131 61 1 1 0 0 1 0 0 0 0 0
26 25.0 52.0 90.0 40.0 169 224 38 0 1 0 0 1 0 1 1 0 0
27 25.0 55.0 90.0 10.0 0 1130 29 0 1 0 0 1 1 0 1 0 0
28 23.0 52.0 90.0 10.0 261 316 10 0 0 0 0 0 1 0 0 0 0
29 23.0 55.0 90.0 20.0 0 1128 49 0 0 0 1 0 0 0 1 0 1
30 20.0 50.0 90.0 10.0 0 1126 96 0 1 0 0 0 0 0 0 0 0
31 20.0 55.0 90.0 10.0 449 504 65 0 0 0 0 1 0 0 0 0 1
32 10.0 35.0 90.0 20.0 0 1112 87 0 0 0 0 1 0 0 1 0 0
33 10.0 40.0 90.0 30.0 0 1114 45 1 0 0 1 0 0 0 0 1 0
34 8.0 40.0 90.0 40.0 87 158 82 0 0 1 0 1 1 0 1 0 0
35 8.0 45.0 90.0 20.0 0 1113 19 0 0 0 1 0 0 0 0 0 0
36 5.0 35.0 90.0 10.0 283 344 20 0 1 0 1 1 0 0 1 0 0
37 5.0 45.0 90.0 10.0 665 716 27 0 1 0 0 0 0 0 0 0 0
38 2.0 40.0 90.0 20.0 0 1106 64 1 0 1 0 0 0 0 0 0 0
39 0.0 40.0 90.0 30.0 479 522 65 0 0 0 0 0 1 0 0 0 0
40 0.0 45.0 90.0 20.0 567 624 64 0 0 1 1 0 1 1 0 0 0
41 35.0 30.0 90.0 10.0 264 321 24 0 0 0 1 0 1 0 0 0 0
42 35.0 32.0 90.0 10.0 166 235 93 0 0 1 1 0 0 1 0 1 0
43 33.0 32.0 90.0 20.0 68 149 46 0 1 0 0 1 1 0 0 0 1
44 33.0 35.0 90.0 10.0 0 1129 63 0 0 0 0 0 0 0 0 1 0
45 32.0 30.0 90.0 10.0 359 412 71 0 0 1 0 1 0 0 0 1 0
46 30.0 30.0 90.0 10.0 541 600 98 0 0 0 0 0 0 0 1 0 0
47 30.0 32.0 90.0 30.0 0 1125 40 0 0 1 0 0 0 0 1 0 1
48 30.0 35.0 90.0 10.0 0 1127 23 0 0 0 0 0 0 0 1 0 0
49 28.0 30.0 90.0 10.0 0 1122 73 0 0 0 0 0 0 0 0 1 0
50 28.0 35.0 90.0 10.0 1001 1066 21 0 1 1 0 0 0 1 0 1 0
51 26.0 32.0 90.0 10.0 0 1123 25 0 0 1 1 0 0 0 0 0 0
52 25.0 30.0 90.0 10.0 0 1121 91 0 1 0 0 0 0 0 1 0 0
53 25.0 35.0 90.0 10.0 0 1124 0 0 1 1 0 0 0 0 0 1 1
54 44.0 5.0 90.0 20.0 286 347 97 0 0 0 0 1 0 0 0 0 0
55 42.0 10.0 90.0 40.0 0 1105 47 1 1 0 0 0 0 0 0 0 0
56 42.0 15.0 90.0 10.0 95 158 84 1 1 0 0 1 0 0 0 0 0
57 40.0 5.0 90.0 30.0 385 436 44 0 1 1 0 0 1 0 0 0 0
58 40.0 15.0 90.0 40.0 0 1111 82 0 0 1 0 1 1 0 0 0 1
59 38.0 5.0 90.0 30.0 471 534 84 1 1 0 0 0 0 0 0 0 0
60 38.0 15.0 90.0 10.0 0 1110 24 0 0 0 0 0 1 0 0 0 0
61 35.0 5.0 90.0 20.0 0 1100 32 0 0 1 0 0 0 0 0 0 0
62 50.0 30.0 90.0 10.0 0 1123 26 0 0 0 0 0 0 0 0 1 0
63 50.0 35.0 90.0 20.0 262 317 34 0 0 1 1 0 0 0 0 0 1
64 50.0 40.0 90.0 50.0 0 1131 29 0 0 0 0 0 1 0 0 0 0
65 48.0 30.0 90.0 10.0 632 693 61 0 0 0 0 0 1 0 1 0 0
66 48.0 40.0 90.0 10.0 76 129 59 1 0 0 0 0 1 0 0 0 0
67 47.0 35.0 90.0 10.0 826 875 52 0 1 0 0 0 0 0 0 0 0
68 47.0 40.0 90.0 10.0 12 77 86 0 0 1 0 0 0 0 0 1 1
69 45.0 30.0 90.0 10.0 734 777 86 0 0 0 0 0 1 0 0 0 0
70 45.0 35.0 90.0 10.0 916 969 81 0 1 0 0 0 0 1 0 0 0
71 95.0 30.0 90.0 30.0 387 456 99 0 1 0 0 0 0 0 0 0 0
72 95.0 35.0 90.0 20.0 0 1088 97 0 1 0 0 0 1 0 0 0 0
73 53.0 30.0 90.0 10.0 0 1122 56 0 0 1 0 0 0 0 1 0 0
74 92.0 30.0 90.0 10.0 0 1090 97 0 0 1 0 0 1 0 0 0 0
75 53.0 35.0 90.0 50.0 353 412 61 0 1 0 0 1 0 0 1 1 1
76 45.0 65.0 90.0 20.0 0 1130 5 0 1 1 0 0 1 0 1 0 0
77 90.0 35.0 90.0 10.0 203 260 53 0 0 0 0 0 1 0 0 0 0
78 88.0 30.0 90.0 10.0 574 643 9 1 0 1 0 0 0 0 0 0 1
79 88.0 35.0 90.0 20.0 109 170 44 0 0 0 0 0 0 1 1 0 0
80 87.0 30.0 90.0 10.0 668 731 77 0 1 0 1 1 0 0 0 0 1
81 85.0 25.0 90.0 10.0 769 820 45 0 0 0 0 0 1 0 0 0 0
82 85.0 35.0 90.0 30.0 0 1098 67 0 0 0 0 0 1 0 0 0 0
83 75.0 55.0 90.0 20.0 0 1110 55 0 0 0 0 0 1 0 0 0 0
84 72.0 55.0 90.0 10.0 0 1113 6 0 0 0 0 0 1 0 1 0 0
85 70.0 58.0 90.0 20.0 458 523 80 0 1 0 0 0 1 0 1 0 0
86 68.0 60.0 90.0 30.0 0 1116 47 0 0 0 0 0 0 0 0 1 1
87 66.0 55.0 90.0 10.0 0 1119 74 1 0 0 1 0 0 0 1 0 0
88 65.0 55.0 90.0 20.0 85 144 25 0 0 0 1 0 0 1 0 0 1
89 65.0 60.0 90.0 30.0 645 708 43 0 1 0 0 0 0 1 0 0 0
90 63.0 58.0 90.0 10.0 0 1121 24 0 1 1 0 0 1 0 1 1 1
91 60.0 55.0 90.0 10.0 0 1125 51 0 0 1 0 0 0 0 0 0 0
92 60.0 60.0 90.0 10.0 0 1123 12 1 0 1 0 0 0 0 0 1 0
93 67.0 85.0 90.0 20.0 368 441 18 0 0 0 1 0 1 0 0 0 0
94 65.0 85.0 90.0 40.0 475 518 99 0 1 1 1 1 1 1 0 0 0
95 65.0 82.0 90.0 10.0 0 1105 62 0 1 0 1 0 0 0 0 0 0
96 62.0 80.0 90.0 30.0 0 1108 74 0 0 0 0 1 0 0 0 0 0
97 60.0 80.0 90.0 10.0 0 1109 38 0 0 0 0 0 0 1 0 0 0
98 60.0 85.0 90.0 30.0 0 1105 83 1 0 0 0 0 0 0 0 1 0
99 58.0 75.0 90.0 20.0 0 1115 85 0 0 1 1 0 0 0 0 0 0
100 55.0 80.0 90.0 10.0 743 820 19 0 0 0 1 0 0 0 0 0 0
101 55.0 85.0 90.0 20.0 647 726 65 0 0 0 0 0 1 0 0 0 0